1662012000
1662040800
1662098400
1662114600
1662386400
1662393600
1662472800
1662480000
1662559200
1662566400
1662645600
1662652800
1662732000
1662739200
1662991200
1662998400
1663077600
1663084800
1663164000
1663171200
1663333200
1663344000
1663596000
1663603200
